NAME netflow
ROWS
 N  OBJ
 L  c0      
 L  c1      
 L  c2      
 L  c3      
 L  c4      
 L  c5      
 L  c6      
 E  c7      
 E  c8      
 E  c9      
 E  c10     
 E  c11     
 E  c12     
 E  c13     
 E  c14     
 E  c15     
 E  c16     
 E  c17     
 E  c18     
 E  c19     
 E  c20     
 E  c21     
 E  c22     
 E  c23     
 E  c24     
 E  c25     
 E  c26     
 E  c27     
 E  c28     
 E  c29     
 E  c30     
 E  c31     
 E  c32     
 E  c33     
 E  c34     
 E  c35     
 E  c36     
 E  c37     
 E  c38     
 E  c39     
 E  c40     
 E  c41     
 E  c42     
 E  c43     
 E  c44     
 E  c45     
 E  c46     
 E  c47     
 E  c48     
 E  c49     
 E  c50     
 E  c51     
 E  c52     
 E  c53     
 E  c54     
 E  c55     
 E  c56     
 E  c57     
 E  c58     
 E  c59     
 E  c60     
 E  c61     
 E  c62     
 E  c63     
 E  c64     
 E  c65     
 E  c66     
 E  c67     
 E  c68     
 E  c69     
 E  c70     
 E  c71     
 E  c72     
 E  c73     
 E  c74     
 E  c75     
 E  c76     
 E  c77     
 E  c78     
 E  c79     
 E  c80     
 E  c81     
 E  c82     
 E  c83     
 E  c84     
 E  c85     
 E  c86     
 E  c87     
 E  c88     
 E  c89     
 E  c90     
 E  c91     
 E  c92     
 E  c93     
 E  c94     
 E  c95     
 E  c96     
 E  c97     
 E  c98     
 E  c99     
 E  c100    
 E  c101    
 E  c102    
 E  c103    
 E  c104    
 E  c105    
 E  c106    
COLUMNS
    flow[instagram,1.0,2.0]  OBJ       1
    flow[instagram,1.0,2.0]  c0        1
    flow[instagram,1.0,2.0]  c7        1
    flow[instagram,1.0,2.0]  c8        -1
    flow[instagram,1.0,2.0]  c12       1
    flow[instagram,1.0,2.0]  c13       -1
    flow[instagram,1.0,2.0]  c17       1
    flow[instagram,1.0,2.0]  c18       -1
    flow[instagram,1.0,2.0]  c22       1
    flow[instagram,1.0,2.0]  c23       -1
    flow[instagram,1.0,2.0]  c27       1
    flow[instagram,1.0,2.0]  c28       -1
    flow[instagram,1.0,3.0]  OBJ       1
    flow[instagram,1.0,3.0]  c1        1
    flow[instagram,1.0,3.0]  c7        1
    flow[instagram,1.0,3.0]  c9        -1
    flow[instagram,1.0,3.0]  c12       1
    flow[instagram,1.0,3.0]  c14       -1
    flow[instagram,1.0,3.0]  c17       1
    flow[instagram,1.0,3.0]  c19       -1
    flow[instagram,1.0,3.0]  c22       1
    flow[instagram,1.0,3.0]  c24       -1
    flow[instagram,1.0,3.0]  c27       1
    flow[instagram,1.0,3.0]  c29       -1
    flow[instagram,2.0,3.0]  OBJ       2
    flow[instagram,2.0,3.0]  c2        1
    flow[instagram,2.0,3.0]  c8        1
    flow[instagram,2.0,3.0]  c9        -1
    flow[instagram,2.0,3.0]  c13       1
    flow[instagram,2.0,3.0]  c14       -1
    flow[instagram,2.0,3.0]  c18       1
    flow[instagram,2.0,3.0]  c19       -1
    flow[instagram,2.0,3.0]  c23       1
    flow[instagram,2.0,3.0]  c24       -1
    flow[instagram,2.0,3.0]  c28       1
    flow[instagram,2.0,3.0]  c29       -1
    flow[instagram,4.0,5.0]  OBJ       3
    flow[instagram,4.0,5.0]  c3        1
    flow[instagram,4.0,5.0]  c10       1
    flow[instagram,4.0,5.0]  c11       -1
    flow[instagram,4.0,5.0]  c15       1
    flow[instagram,4.0,5.0]  c16       -1
    flow[instagram,4.0,5.0]  c20       1
    flow[instagram,4.0,5.0]  c21       -1
    flow[instagram,4.0,5.0]  c25       1
    flow[instagram,4.0,5.0]  c26       -1
    flow[instagram,4.0,5.0]  c30       1
    flow[instagram,4.0,5.0]  c31       -1
    flow[instagram,3.0,4.0]  OBJ       8
    flow[instagram,3.0,4.0]  c4        1
    flow[instagram,3.0,4.0]  c9        1
    flow[instagram,3.0,4.0]  c10       -1
    flow[instagram,3.0,4.0]  c14       1
    flow[instagram,3.0,4.0]  c15       -1
    flow[instagram,3.0,4.0]  c19       1
    flow[instagram,3.0,4.0]  c20       -1
    flow[instagram,3.0,4.0]  c24       1
    flow[instagram,3.0,4.0]  c25       -1
    flow[instagram,3.0,4.0]  c29       1
    flow[instagram,3.0,4.0]  c30       -1
    flow[instagram,2.0,4.0]  OBJ       4
    flow[instagram,2.0,4.0]  c5        1
    flow[instagram,2.0,4.0]  c8        1
    flow[instagram,2.0,4.0]  c10       -1
    flow[instagram,2.0,4.0]  c13       1
    flow[instagram,2.0,4.0]  c15       -1
    flow[instagram,2.0,4.0]  c18       1
    flow[instagram,2.0,4.0]  c20       -1
    flow[instagram,2.0,4.0]  c23       1
    flow[instagram,2.0,4.0]  c25       -1
    flow[instagram,2.0,4.0]  c28       1
    flow[instagram,2.0,4.0]  c30       -1
    flow[instagram,3.0,5.0]  OBJ       5
    flow[instagram,3.0,5.0]  c6        1
    flow[instagram,3.0,5.0]  c9        1
    flow[instagram,3.0,5.0]  c11       -1
    flow[instagram,3.0,5.0]  c14       1
    flow[instagram,3.0,5.0]  c16       -1
    flow[instagram,3.0,5.0]  c19       1
    flow[instagram,3.0,5.0]  c21       -1
    flow[instagram,3.0,5.0]  c24       1
    flow[instagram,3.0,5.0]  c26       -1
    flow[instagram,3.0,5.0]  c29       1
    flow[instagram,3.0,5.0]  c31       -1
    flow[twitter,1.0,2.0]  c0        1
    flow[twitter,1.0,2.0]  c32       1
    flow[twitter,1.0,2.0]  c33       -1
    flow[twitter,1.0,2.0]  c37       1
    flow[twitter,1.0,2.0]  c38       -1
    flow[twitter,1.0,2.0]  c42       1
    flow[twitter,1.0,2.0]  c43       -1
    flow[twitter,1.0,2.0]  c47       1
    flow[twitter,1.0,2.0]  c48       -1
    flow[twitter,1.0,2.0]  c52       1
    flow[twitter,1.0,2.0]  c53       -1
    flow[twitter,1.0,3.0]  c1        1
    flow[twitter,1.0,3.0]  c32       1
    flow[twitter,1.0,3.0]  c34       -1
    flow[twitter,1.0,3.0]  c37       1
    flow[twitter,1.0,3.0]  c39       -1
    flow[twitter,1.0,3.0]  c42       1
    flow[twitter,1.0,3.0]  c44       -1
    flow[twitter,1.0,3.0]  c47       1
    flow[twitter,1.0,3.0]  c49       -1
    flow[twitter,1.0,3.0]  c52       1
    flow[twitter,1.0,3.0]  c54       -1
    flow[twitter,2.0,3.0]  c2        1
    flow[twitter,2.0,3.0]  c33       1
    flow[twitter,2.0,3.0]  c34       -1
    flow[twitter,2.0,3.0]  c38       1
    flow[twitter,2.0,3.0]  c39       -1
    flow[twitter,2.0,3.0]  c43       1
    flow[twitter,2.0,3.0]  c44       -1
    flow[twitter,2.0,3.0]  c48       1
    flow[twitter,2.0,3.0]  c49       -1
    flow[twitter,2.0,3.0]  c53       1
    flow[twitter,2.0,3.0]  c54       -1
    flow[twitter,4.0,5.0]  c3        1
    flow[twitter,4.0,5.0]  c35       1
    flow[twitter,4.0,5.0]  c36       -1
    flow[twitter,4.0,5.0]  c40       1
    flow[twitter,4.0,5.0]  c41       -1
    flow[twitter,4.0,5.0]  c45       1
    flow[twitter,4.0,5.0]  c46       -1
    flow[twitter,4.0,5.0]  c50       1
    flow[twitter,4.0,5.0]  c51       -1
    flow[twitter,4.0,5.0]  c55       1
    flow[twitter,4.0,5.0]  c56       -1
    flow[twitter,3.0,4.0]  c4        1
    flow[twitter,3.0,4.0]  c34       1
    flow[twitter,3.0,4.0]  c35       -1
    flow[twitter,3.0,4.0]  c39       1
    flow[twitter,3.0,4.0]  c40       -1
    flow[twitter,3.0,4.0]  c44       1
    flow[twitter,3.0,4.0]  c45       -1
    flow[twitter,3.0,4.0]  c49       1
    flow[twitter,3.0,4.0]  c50       -1
    flow[twitter,3.0,4.0]  c54       1
    flow[twitter,3.0,4.0]  c55       -1
    flow[twitter,2.0,4.0]  c5        1
    flow[twitter,2.0,4.0]  c33       1
    flow[twitter,2.0,4.0]  c35       -1
    flow[twitter,2.0,4.0]  c38       1
    flow[twitter,2.0,4.0]  c40       -1
    flow[twitter,2.0,4.0]  c43       1
    flow[twitter,2.0,4.0]  c45       -1
    flow[twitter,2.0,4.0]  c48       1
    flow[twitter,2.0,4.0]  c50       -1
    flow[twitter,2.0,4.0]  c53       1
    flow[twitter,2.0,4.0]  c55       -1
    flow[twitter,3.0,5.0]  c6        1
    flow[twitter,3.0,5.0]  c34       1
    flow[twitter,3.0,5.0]  c36       -1
    flow[twitter,3.0,5.0]  c39       1
    flow[twitter,3.0,5.0]  c41       -1
    flow[twitter,3.0,5.0]  c44       1
    flow[twitter,3.0,5.0]  c46       -1
    flow[twitter,3.0,5.0]  c49       1
    flow[twitter,3.0,5.0]  c51       -1
    flow[twitter,3.0,5.0]  c54       1
    flow[twitter,3.0,5.0]  c56       -1
    flow[zoom,1.0,2.0]  c0        1
    flow[zoom,1.0,2.0]  c57       1
    flow[zoom,1.0,2.0]  c58       -1
    flow[zoom,1.0,2.0]  c62       1
    flow[zoom,1.0,2.0]  c63       -1
    flow[zoom,1.0,2.0]  c67       1
    flow[zoom,1.0,2.0]  c68       -1
    flow[zoom,1.0,2.0]  c72       1
    flow[zoom,1.0,2.0]  c73       -1
    flow[zoom,1.0,2.0]  c77       1
    flow[zoom,1.0,2.0]  c78       -1
    flow[zoom,1.0,3.0]  c1        1
    flow[zoom,1.0,3.0]  c57       1
    flow[zoom,1.0,3.0]  c59       -1
    flow[zoom,1.0,3.0]  c62       1
    flow[zoom,1.0,3.0]  c64       -1
    flow[zoom,1.0,3.0]  c67       1
    flow[zoom,1.0,3.0]  c69       -1
    flow[zoom,1.0,3.0]  c72       1
    flow[zoom,1.0,3.0]  c74       -1
    flow[zoom,1.0,3.0]  c77       1
    flow[zoom,1.0,3.0]  c79       -1
    flow[zoom,2.0,3.0]  c2        1
    flow[zoom,2.0,3.0]  c58       1
    flow[zoom,2.0,3.0]  c59       -1
    flow[zoom,2.0,3.0]  c63       1
    flow[zoom,2.0,3.0]  c64       -1
    flow[zoom,2.0,3.0]  c68       1
    flow[zoom,2.0,3.0]  c69       -1
    flow[zoom,2.0,3.0]  c73       1
    flow[zoom,2.0,3.0]  c74       -1
    flow[zoom,2.0,3.0]  c78       1
    flow[zoom,2.0,3.0]  c79       -1
    flow[zoom,4.0,5.0]  c3        1
    flow[zoom,4.0,5.0]  c60       1
    flow[zoom,4.0,5.0]  c61       -1
    flow[zoom,4.0,5.0]  c65       1
    flow[zoom,4.0,5.0]  c66       -1
    flow[zoom,4.0,5.0]  c70       1
    flow[zoom,4.0,5.0]  c71       -1
    flow[zoom,4.0,5.0]  c75       1
    flow[zoom,4.0,5.0]  c76       -1
    flow[zoom,4.0,5.0]  c80       1
    flow[zoom,4.0,5.0]  c81       -1
    flow[zoom,3.0,4.0]  c4        1
    flow[zoom,3.0,4.0]  c59       1
    flow[zoom,3.0,4.0]  c60       -1
    flow[zoom,3.0,4.0]  c64       1
    flow[zoom,3.0,4.0]  c65       -1
    flow[zoom,3.0,4.0]  c69       1
    flow[zoom,3.0,4.0]  c70       -1
    flow[zoom,3.0,4.0]  c74       1
    flow[zoom,3.0,4.0]  c75       -1
    flow[zoom,3.0,4.0]  c79       1
    flow[zoom,3.0,4.0]  c80       -1
    flow[zoom,2.0,4.0]  c5        1
    flow[zoom,2.0,4.0]  c58       1
    flow[zoom,2.0,4.0]  c60       -1
    flow[zoom,2.0,4.0]  c63       1
    flow[zoom,2.0,4.0]  c65       -1
    flow[zoom,2.0,4.0]  c68       1
    flow[zoom,2.0,4.0]  c70       -1
    flow[zoom,2.0,4.0]  c73       1
    flow[zoom,2.0,4.0]  c75       -1
    flow[zoom,2.0,4.0]  c78       1
    flow[zoom,2.0,4.0]  c80       -1
    flow[zoom,3.0,5.0]  c6        1
    flow[zoom,3.0,5.0]  c59       1
    flow[zoom,3.0,5.0]  c61       -1
    flow[zoom,3.0,5.0]  c64       1
    flow[zoom,3.0,5.0]  c66       -1
    flow[zoom,3.0,5.0]  c69       1
    flow[zoom,3.0,5.0]  c71       -1
    flow[zoom,3.0,5.0]  c74       1
    flow[zoom,3.0,5.0]  c76       -1
    flow[zoom,3.0,5.0]  c79       1
    flow[zoom,3.0,5.0]  c81       -1
    flow[netflix,1.0,2.0]  c0        1
    flow[netflix,1.0,2.0]  c82       1
    flow[netflix,1.0,2.0]  c83       -1
    flow[netflix,1.0,2.0]  c87       1
    flow[netflix,1.0,2.0]  c88       -1
    flow[netflix,1.0,2.0]  c92       1
    flow[netflix,1.0,2.0]  c93       -1
    flow[netflix,1.0,2.0]  c97       1
    flow[netflix,1.0,2.0]  c98       -1
    flow[netflix,1.0,2.0]  c102      1
    flow[netflix,1.0,2.0]  c103      -1
    flow[netflix,1.0,3.0]  c1        1
    flow[netflix,1.0,3.0]  c82       1
    flow[netflix,1.0,3.0]  c84       -1
    flow[netflix,1.0,3.0]  c87       1
    flow[netflix,1.0,3.0]  c89       -1
    flow[netflix,1.0,3.0]  c92       1
    flow[netflix,1.0,3.0]  c94       -1
    flow[netflix,1.0,3.0]  c97       1
    flow[netflix,1.0,3.0]  c99       -1
    flow[netflix,1.0,3.0]  c102      1
    flow[netflix,1.0,3.0]  c104      -1
    flow[netflix,2.0,3.0]  c2        1
    flow[netflix,2.0,3.0]  c83       1
    flow[netflix,2.0,3.0]  c84       -1
    flow[netflix,2.0,3.0]  c88       1
    flow[netflix,2.0,3.0]  c89       -1
    flow[netflix,2.0,3.0]  c93       1
    flow[netflix,2.0,3.0]  c94       -1
    flow[netflix,2.0,3.0]  c98       1
    flow[netflix,2.0,3.0]  c99       -1
    flow[netflix,2.0,3.0]  c103      1
    flow[netflix,2.0,3.0]  c104      -1
    flow[netflix,4.0,5.0]  c3        1
    flow[netflix,4.0,5.0]  c85       1
    flow[netflix,4.0,5.0]  c86       -1
    flow[netflix,4.0,5.0]  c90       1
    flow[netflix,4.0,5.0]  c91       -1
    flow[netflix,4.0,5.0]  c95       1
    flow[netflix,4.0,5.0]  c96       -1
    flow[netflix,4.0,5.0]  c100      1
    flow[netflix,4.0,5.0]  c101      -1
    flow[netflix,4.0,5.0]  c105      1
    flow[netflix,4.0,5.0]  c106      -1
    flow[netflix,3.0,4.0]  c4        1
    flow[netflix,3.0,4.0]  c84       1
    flow[netflix,3.0,4.0]  c85       -1
    flow[netflix,3.0,4.0]  c89       1
    flow[netflix,3.0,4.0]  c90       -1
    flow[netflix,3.0,4.0]  c94       1
    flow[netflix,3.0,4.0]  c95       -1
    flow[netflix,3.0,4.0]  c99       1
    flow[netflix,3.0,4.0]  c100      -1
    flow[netflix,3.0,4.0]  c104      1
    flow[netflix,3.0,4.0]  c105      -1
    flow[netflix,2.0,4.0]  c5        1
    flow[netflix,2.0,4.0]  c83       1
    flow[netflix,2.0,4.0]  c85       -1
    flow[netflix,2.0,4.0]  c88       1
    flow[netflix,2.0,4.0]  c90       -1
    flow[netflix,2.0,4.0]  c93       1
    flow[netflix,2.0,4.0]  c95       -1
    flow[netflix,2.0,4.0]  c98       1
    flow[netflix,2.0,4.0]  c100      -1
    flow[netflix,2.0,4.0]  c103      1
    flow[netflix,2.0,4.0]  c105      -1
    flow[netflix,3.0,5.0]  c6        1
    flow[netflix,3.0,5.0]  c84       1
    flow[netflix,3.0,5.0]  c86       -1
    flow[netflix,3.0,5.0]  c89       1
    flow[netflix,3.0,5.0]  c91       -1
    flow[netflix,3.0,5.0]  c94       1
    flow[netflix,3.0,5.0]  c96       -1
    flow[netflix,3.0,5.0]  c99       1
    flow[netflix,3.0,5.0]  c101      -1
    flow[netflix,3.0,5.0]  c104      1
    flow[netflix,3.0,5.0]  c106      -1
RHS
    RHS1      c0        20
    RHS1      c1        10
    RHS1      c2        10
    RHS1      c3        30
    RHS1      c4        40
    RHS1      c5        20
    RHS1      c6        10
    RHS1      c7        15
    RHS1      c8        15
    RHS1      c9        15
    RHS1      c10       15
    RHS1      c11       15
    RHS1      c22       -15
    RHS1      c23       -15
    RHS1      c24       -15
    RHS1      c25       -15
    RHS1      c26       -15
    RHS1      c32       5
    RHS1      c33       5
    RHS1      c34       5
    RHS1      c35       5
    RHS1      c36       5
    RHS1      c52       -5
    RHS1      c53       -5
    RHS1      c54       -5
    RHS1      c55       -5
    RHS1      c56       -5
    RHS1      c62       10
    RHS1      c63       10
    RHS1      c64       10
    RHS1      c65       10
    RHS1      c66       10
    RHS1      c77       -10
    RHS1      c78       -10
    RHS1      c79       -10
    RHS1      c80       -10
    RHS1      c81       -10
    RHS1      c92       5
    RHS1      c93       5
    RHS1      c94       5
    RHS1      c95       5
    RHS1      c96       5
    RHS1      c102      -5
    RHS1      c103      -5
    RHS1      c104      -5
    RHS1      c105      -5
    RHS1      c106      -5
BOUNDS
ENDATA
